--------------------------------------------------------------------------------(Solver execution current time: 0.0001900196075439453)
[INFO] Input Seed : 0
--------------------------------------------------------------------------------(Solver execution current time: 0.00023412704467773438)
[INFO] Input time limit : 30
--------------------------------------------------------------------------------(Solver execution current time: 0.0002684593200683594)
[INFO] Command line arguments read with no errors.
--------------------------------------------------------------------------------(Solver execution current time: 0.06111502647399902)
[INFO] Input file read with no errors.
--------------------------------------------------------------------------------(Solver execution current time: 0.06121110916137695)
[INFO] Starting solver.
--------------------------------------------------------------------------------(Solver execution current time: 0.06125235557556152)
[INFO] Starting construction
--------------------------------------------------------------------------------(Solver execution current time: 4.686340570449829)
[INFO] Finished construction
--------------------------------------------------------------------------------(Solver execution current time: 4.686485290527344)
[SOLUTION]
Basic Greedy Heuristic
Exec Time: 4.625085353851318
obj_value: -91; obj_routes: 35661.0
Route 1 : 80 180 46 59 68 69 78 169 178 75 146 159 51 92 81 175 10 181 16 192 116 168 151 110 41 1 6 101 141 106 23 26 126 123 48 148 
Route 2 : 22 30 122 130 14 77 88 114 177 53 188 12 96 84 95 195 56 153 112 156 184 37 33 52 133 29 17 3 103 196 40 129 152 137 43 143 117 140 
Route 3 : 44 91 191 62 162 144 58 13 158 113 27 127 72 172 83 73 183 85 185 57 173 157 
Route 4 : 70 49 149 66 170 166 94 97 194 197 89 189 4 104 98 8 108 198 71 171 
Route 5 : 7 99 107 199 100 200 60 160 47 147 87 187 
Route 6 : 5 19 105 82 119 182 28 128 25 38 50 150 125 138 54 154 
Route 7 : 63 163 2 102 86 186 32 132 35 135 
Route 8 : 65 20 120 165 61 161 
Route 9 : 31 131 42 142 39 55 76 176 155 139 67 167 
Route 10 : 64 45 164 145 74 174 
Route 11 : 21 11 121 111 
Route 12 : 
Route 13 : 
Route 14 : 
Route 15 : 
Route 16 : 
Route 17 : 
Route 18 : 
Route 19 : 
Route 20 : 
Route 21 : 

--------------------------------------------------------------------------------(Solver execution current time: 4.690079689025879)
[SOLUTION]
Solution after BasicGreedyLimitedHeterogeneousFleet
obj_value: -91; obj_routes: 35661.0
Route 1 : 80 180 46 59 68 69 78 169 178 75 146 159 51 92 81 175 10 181 16 192 116 168 151 110 41 1 6 101 141 106 23 26 126 123 48 148 
Route 2 : 22 30 122 130 14 77 88 114 177 53 188 12 96 84 95 195 56 153 112 156 184 37 33 52 133 29 17 3 103 196 40 129 152 137 43 143 117 140 
Route 3 : 44 91 191 62 162 144 58 13 158 113 27 127 72 172 83 73 183 85 185 57 173 157 
Route 4 : 70 49 149 66 170 166 94 97 194 197 89 189 4 104 98 8 108 198 71 171 
Route 5 : 7 99 107 199 100 200 60 160 47 147 87 187 
Route 6 : 5 19 105 82 119 182 28 128 25 38 50 150 125 138 54 154 
Route 7 : 63 163 2 102 86 186 32 132 35 135 
Route 8 : 65 20 120 165 61 161 
Route 9 : 31 131 42 142 39 55 76 176 155 139 67 167 
Route 10 : 64 45 164 145 74 174 
Route 11 : 21 11 121 111 
Route 12 : 
Route 13 : 
Route 14 : 
Route 15 : 
Route 16 : 
Route 17 : 
Route 18 : 
Route 19 : 
Route 20 : 
Route 21 : 

--------------------------------------------------------------------------------(Solver execution current time: 4.690556764602661)
[INFO] Starting metaheuristic
--------------------------------------------------------------------------------(Solver execution current time: 4.698690414428711)
[INFO] AGES EXCLUDED
--------------------------------------------------------------------------------(Solver execution current time: 4.700590372085571)
[INFO] Starting LNS
--------------------------------------------------------------------------------(Solver execution current time: 5.0238611698150635)
[SOLUTION]
LNS
IT: 40
Exec Time: 0.3210272789001465
obj_value: -91; obj_routes: 35661.0
Route 1 : 80 180 46 59 68 69 78 169 178 75 146 159 51 92 81 175 10 181 16 192 116 168 151 110 41 1 6 101 141 106 23 26 126 123 48 148 
Route 2 : 22 30 122 130 14 77 88 114 177 53 188 12 96 84 95 195 56 153 112 156 184 37 33 52 133 29 17 3 103 196 40 129 152 137 43 143 117 140 
Route 3 : 44 91 191 62 162 144 58 13 158 113 27 127 72 172 83 73 183 85 185 57 173 157 
Route 4 : 70 49 149 66 170 166 94 97 194 197 89 189 4 104 98 8 108 198 71 171 
Route 5 : 7 99 107 199 100 200 60 160 47 147 87 187 
Route 6 : 5 19 105 82 119 182 28 128 25 38 50 150 125 138 54 154 
Route 7 : 63 163 2 102 86 186 32 132 35 135 
Route 8 : 65 20 120 165 61 161 
Route 9 : 31 131 42 142 39 55 76 176 155 139 67 167 
Route 10 : 64 45 164 145 74 174 
Route 11 : 21 11 121 111 
Route 12 : 
Route 13 : 
Route 14 : 
Route 15 : 
Route 16 : 
Route 17 : 
Route 18 : 
Route 19 : 
Route 20 : 
Route 21 : 

--------------------------------------------------------------------------------(Solver execution current time: 5.025891304016113)
[INFO] Starting PartitionMaxRequestsHF
--------------------------------------------------------------------------------(Solver execution current time: 5.084166765213013)
[SOLUTION]
PartitionMaxRequestsHF
Exec Time: 0.05820798873901367
obj_value: -91; obj_routes: 35661.0
Route 1 : 80 180 46 59 68 69 78 169 178 75 146 159 51 92 81 175 10 181 16 192 116 168 151 110 41 1 6 101 141 106 23 26 126 123 48 148 
Route 2 : 22 30 122 130 14 77 88 114 177 53 188 12 96 84 95 195 56 153 112 156 184 37 33 52 133 29 17 3 103 196 40 129 152 137 43 143 117 140 
Route 3 : 44 91 191 62 162 144 58 13 158 113 27 127 72 172 83 73 183 85 185 57 173 157 
Route 4 : 70 49 149 66 170 166 94 97 194 197 89 189 4 104 98 8 108 198 71 171 
Route 5 : 7 99 107 199 100 200 60 160 47 147 87 187 
Route 6 : 5 19 105 82 119 182 28 128 25 38 50 150 125 138 54 154 
Route 7 : 63 163 2 102 86 186 32 132 35 135 
Route 8 : 65 20 120 165 61 161 
Route 9 : 31 131 42 142 39 55 76 176 155 139 67 167 
Route 10 : 64 45 164 145 74 174 
Route 11 : 21 11 121 111 
Route 12 : 
Route 13 : 
Route 14 : 
Route 15 : 
Route 16 : 
Route 17 : 
Route 18 : 
Route 19 : 
Route 20 : 
Route 21 : 

--------------------------------------------------------------------------------(Solver execution current time: 5.0860984325408936)
[INFO] Starting OriginalPerturbation
--------------------------------------------------------------------------------(Solver execution current time: 30.011377573013306)
[WARNING] Time Limit Exceeded
--------------------------------------------------------------------------------(Solver execution current time: 30.011513710021973)
[WARNING] Searching current best solution.
--------------------------------------------------------------------------------(Solver execution current time: 30.0139422416687)
[INFO] Algorithm execution time : 30.014726400375366
--------------------------------------------------------------------------------(Solver execution current time: 30.01518964767456)
[SOLUTION]
Final Solution Verification
====================================
Constraints verification: 
Homogenous Capacity Constraint OK
Time Windwos Constraint OK
Pickup and Delivery Constraint OK
Fixed Requests Constraint OK
Limited Fleet Constraint OK
Heterogeneous Fleet Constraint OK
====================================
Obj Func verification: 
SOLUTION COST OK
------------------------------------
ROUTES TOTAL COST OK
------------------------------------
REQUESTS TOTAL COST OK
------------------------------------
OBJECTIVE VALUE: -91
ROUTES VALUE: 35661.0
------------------------------------

Best Solution: 
obj_value: -91; obj_routes: 35661.0
Route 1 : 80 180 46 59 68 69 78 169 178 75 146 159 51 92 81 175 10 181 16 192 116 168 151 110 41 1 6 101 141 106 23 26 126 123 48 148 
Route 2 : 22 30 122 130 14 77 88 114 177 53 188 12 96 84 95 195 56 153 112 156 184 37 33 52 133 29 17 3 103 196 40 129 152 137 43 143 117 140 
Route 3 : 44 91 191 62 162 144 58 13 158 113 27 127 72 172 83 73 183 85 185 57 173 157 
Route 4 : 70 49 149 66 170 166 94 97 194 197 89 189 4 104 98 8 108 198 71 171 
Route 5 : 7 99 107 199 100 200 60 160 47 147 87 187 
Route 6 : 5 19 105 82 119 182 28 128 25 38 50 150 125 138 54 154 
Route 7 : 63 163 2 102 86 186 32 132 35 135 
Route 8 : 65 20 120 165 61 161 
Route 9 : 31 131 42 142 39 55 76 176 155 139 67 167 
Route 10 : 64 45 164 145 74 174 
Route 11 : 21 11 121 111 
Route 12 : 
Route 13 : 
Route 14 : 
Route 15 : 
Route 16 : 
Route 17 : 
Route 18 : 
Route 19 : 
Route 20 : 
Route 21 : 

--------------------------------------------------------------------------------